200,161
453,480
560,494
591,406
439,230
681,496
975,555
1155,481
1066,345
977,360
850,529
300,787
512,575
593,527
654,491
672,465
694,380
690,378
736,235
820,-21
935,152
822,212
1108,267
282,535
368,305
616,-8
760,-97
652,410
281,610
736,577
935,660
1045,670
452,721
